(declare-const v0 Bool)
(declare-const v1 Bool)
(declare-const v2 Bool)
(declare-const v3 Bool)
(declare-const v4 Bool)
(assert (edge (or v0 v1) (or v1 v2 (not v3))))
(assert (edge (not v2) (not v1)))
(assert (edge (or v0 v3) (not v4)))
(assert (edge v0 (or v2 (not v3) (not v0))))
(assert (edge (or v2 v3) (or v4 (not v0))))
(assert (not (edge v4 (or (not v1) v3))))